c preprocessed version of 1ezg_graph, 66 vertices, 541 edges
p td 66 541
64 65
63 64
62 65
62 64
62 63
61 63
61 62
60 62
60 61
59 62
59 60
58 65
58 62
58 60
58 59
57 65
57 64
57 62
57 59
57 58
56 65
56 58
56 57
55 65
55 64
55 63
55 62
55 57
55 56
54 64
54 63
54 62
54 57
54 55
53 64
53 63
53 62
53 61
53 55
53 54
52 63
52 62
52 61
52 60
52 57
52 54
52 53
51 63
51 62
51 61
51 60
51 53
51 52
50 62
50 61
50 60
50 59
50 57
50 52
50 51
49 62
49 60
49 59
49 58
49 57
49 52
49 51
49 50
48 65
48 62
48 59
48 58
48 57
48 56
48 55
48 50
48 49
47 62
47 58
47 57
47 56
47 55
47 52
47 49
47 48
46 57
46 56
46 55
46 54
46 48
46 47
45 64
45 63
45 57
45 56
45 55
45 54
45 53
45 47
45 46
44 64
44 63
44 62
44 55
44 54
44 53
44 52
44 47
44 46
44 45
43 64
43 63
43 62
43 54
43 53
43 52
43 51
43 45
43 44
42 62
42 57
42 53
42 52
42 51
42 50
42 47
42 44
42 43
41 62
41 61
41 60
41 53
41 52
41 51
41 50
41 43
41 42
40 62
40 61
40 60
40 59
40 52
40 51
40 50
40 49
40 42
40 41
39 60
39 59
39 58
39 57
39 52
39 50
39 49
39 48
39 47
39 42
39 40
38 59
38 58
38 57
38 56
38 49
38 48
38 47
38 46
38 40
38 39
37 57
37 52
37 48
37 47
37 46
37 45
37 42
37 39
37 38
36 56
36 55
36 47
36 46
36 45
36 44
36 38
36 37
35 56
35 55
35 54
35 53
35 47
35 46
35 45
35 44
35 43
35 37
35 36
34 54
34 53
34 45
34 44
34 43
34 42
34 37
34 36
34 35
33 54
33 53
33 52
33 44
33 43
33 42
33 41
33 35
33 34
32 52
32 47
32 43
32 42
32 41
32 40
32 37
32 34
32 33
31 53
31 52
31 51
31 50
31 43
31 42
31 41
31 40
31 39
31 33
31 32
30 52
30 51
30 50
30 49
30 42
30 41
30 40
30 39
30 37
30 32
30 31
29 57
29 52
29 50
29 49
29 48
29 47
29 42
29 40
29 39
29 38
29 37
29 32
29 31
29 30
28 49
28 48
28 47
28 46
28 39
28 38
28 37
28 36
28 30
28 29
27 47
27 42
27 39
27 38
27 37
27 36
27 35
27 32
27 29
27 28
26 46
26 45
26 37
26 36
26 35
26 34
26 28
26 27
25 54
25 46
25 45
25 44
25 43
25 37
25 36
25 35
25 34
25 33
25 27
25 26
24 44
24 43
24 35
24 34
24 33
24 32
24 27
24 26
24 25
23 44
23 43
23 42
23 35
23 34
23 33
23 32
23 31
23 25
23 24
22 42
22 37
22 33
22 32
22 31
22 30
22 29
22 27
22 24
22 23
21 43
21 42
21 41
21 40
21 33
21 32
21 31
21 30
21 23
21 22
20 50
20 42
20 41
20 40
20 39
20 32
20 31
20 30
20 29
20 28
20 27
20 22
20 21
19 49
19 47
19 42
19 40
19 39
19 38
19 37
19 32
19 31
19 30
19 29
19 28
19 27
19 22
19 21
19 20
18 39
18 38
18 37
18 36
18 29
18 28
18 27
18 26
18 20
18 19
17 42
17 37
17 32
17 29
17 28
17 27
17 26
17 25
17 24
17 22
17 20
17 19
17 18
16 35
16 27
16 26
16 25
16 24
16 18
16 17
15 44
15 37
15 36
15 35
15 34
15 33
15 27
15 26
15 25
15 24
15 23
15 17
15 16
14 34
14 33
14 26
14 25
14 24
14 23
14 22
14 17
14 16
14 15
13 34
13 33
13 24
13 23
13 22
13 15
13 14
12 32
12 31
12 30
12 23
12 22
12 21
12 20
12 13
11 40
11 32
11 31
11 30
11 29
11 27
11 22
11 21
11 20
11 19
11 17
11 12
10 40
10 39
10 37
10 32
10 31
10 30
10 29
10 28
10 27
10 22
10 21
10 20
10 19
10 18
10 17
10 12
10 11
9 27
9 19
9 18
9 17
9 11
9 10
8 28
8 27
8 26
8 19
8 18
8 17
8 16
8 15
8 10
8 9
7 17
7 16
7 15
7 14
7 9
7 8
6 26
6 25
6 24
6 23
6 17
6 16
6 15
6 14
6 8
6 7
5 24
5 23
5 17
5 16
5 15
5 14
5 13
5 7
5 6
4 24
4 23
4 15
4 14
4 13
4 6
4 5
3 13
3 12
3 5
3 4
2 22
2 21
2 20
2 13
2 12
2 11
2 4
2 3
1 22
1 21
1 20
1 19
1 12
1 11
1 10
1 9
1 3
1 2
0 17
0 11
0 9
0 8
0 7
0 6
0 1
